<number of tasks>
28

<cycle time>
138

<task times>
1 70
2 59
3 33
4 6
5 1
6 27
7 17
8 62
9 31
10 53
11 21
12 19
13 108
14 52
15 5
16 8
17 97
18 8
19 47
20 67
21 17
22 8
23 3
24 21
25 107
26 3
27 2
28 72

<task process alternatives>
1: 56,15 ; 84,8
2: 48,15 ; 71,8
3: 27,15 ; 40,8
4: 5,15 ; 8,8
5: 1,15 ; 2,8
6: 22,15 ; 33,8
7: 14,15 ; 21,8
8: 50,15 ; 75,8
9: 25,15 ; 38,8
10: 43,15 ; 64,8
11: 17,15 ; 26,8
12: 16,15 ; 23,8
13: 87,15 ; 130,8
14: 42,15 ; 63,8
15: 4,15 ; 6,8
16: 7,15 ; 10,8
17: 78,15 ; 117,8
18: 7,15 ; 10,8
19: 38,15 ; 57,8
20: 54,15 ; 81,8
21: 14,15 ; 21,8
22: 7,15 ; 10,8
23: 3,15 ; 4,8
24: 17,15 ; 26,8
25: 86,15 ; 129,8
26: 3,15 ; 4,8
27: 2,15 ; 3,8
28: 58,15 ; 87,8

<incompatible tasks>
4,27
26,27
9,22
3,1

<precedence relations>
26,27
12,13
21,28
23,28
8,9
3,28
14,28
1,3
5,28
10,12
27,28
13,14
2,17
1,21
25,28
1,24
16,28
18,28
20,28
22,28
9,10
1,2
10,11
1,5
19,20
1,8
13,16
1,23
6,7
24,25
1,26
15,28
7,18
4,28
1,4
17,28
2,6
11,15
1,19
1,22

<number of task attributes>
3

<task attribute values>
1,1:70
1,2:81
1,3:90
2,1:22
2,2:85
2,3:51
3,2:99
3,3:72
4,1:20
4,2:11
4,3:6
5,1:91
5,2:68
5,3:92
6,1:81
6,3:9
7,1:7
7,2:94
7,3:37
8,1:8
8,2:5
8,3:3
9,1:38
9,2:3
9,3:1
10,1:17
10,3:6
11,1:75
11,2:51
11,3:7
12,1:23
12,2:4
12,3:8
13,1:20
13,2:3
13,3:27
14,2:17
14,3:5
15,1:7
15,2:10
15,3:1
16,1:1
16,2:4
17,1:58
17,3:5
18,1:4
18,3:21
19,1:20
19,2:2
19,3:40
20,1:35
20,2:57
20,3:93
21,1:5
21,2:4
21,3:69
22,1:27
22,2:59
22,3:8
23,1:3
23,3:3
24,1:1
24,3:3
25,1:54
25,2:34
25,3:16
26,3:2
27,3:3

<attribute bounds per station>
1:100
2:100
3:100

<linked tasks>
6,26
17,23

<optimal SALBP-1 value>
8

<rand seed>
236278236

<end>
